c Random generated cnf formula, satisfiable: false
p cnf 10 50
5 -2 8 0
2 7 -10 0
-8 -1 -5 0
-2 3 10 0
6 -1 -5 0
-10 -1 9 0
-6 -5 4 0
-4 -6 -7 0
8 -7 -1 0
-6 4 9 0
-5 -9 6 0
-1 -2 3 0
-2 9 1 0
-6 -7 -2 0
10 -5 -8 0
9 4 3 0
8 -10 -3 0
7 -2 3 0
8 -2 4 0
-10 -2 8 0
-7 -4 1 0
-10 4 9 0
-2 -1 3 0
4 1 -8 0
10 -3 4 0
9 -5 7 0
2 10 8 0
9 -1 7 0
-10 -3 -4 0
-4 -2 3 0
-4 -9 -2 0
-8 -4 2 0
-9 4 -1 0
1 -2 -6 0
-2 -10 -3 0
9 3 6 0
-8 4 -9 0
8 -1 5 0
-9 3 -10 0
-9 10 3 0
2 -9 -6 0
-10 -2 8 0
3 7 6 0
9 10 -5 0
9 -7 6 0
-8 2 3 0
4 -1 -2 0
1 9 3 0
-7 -2 9 0
-6 2 5 0
